NAME : amz2168.113771_97271.tour
COMMENT : Cost = 113771_97271
COMMENT : Found by LKH-AMZ [Keld Helsgaun] Sun May 11 15:08:29 2025
COMMENT : TW viol.: 0 #: 0
TYPE : TOUR
DIMENSION : 83
TOUR_SECTION
73
53
39
41
69
17
54
71
62
2
56
72
52
43
21
16
3
51
68
7
18
30
65
1
44
63
76
45
64
35
79
29
8
81
5
31
57
6
32
48
33
15
36
83
27
4
22
74
12
40
47
23
19
80
42
50
13
38
11
66
20
9
34
75
59
67
60
61
82
55
24
37
46
25
70
58
28
77
49
10
26
78
14
-1
EOF
